;; sequence(s): A260706
;; terms: 0 1 3 6 9 12 16 20 25 30 35 40 45 51 57 63 70 77 84 91
;; small program: loop(loop(loop(loop(if (loop(loop(y, x - y, x), x, 1 + x) - 1) <= 0 then 1 else 0, 1, (x + x) + x), 1, y) + x, y - 1, x), x, x)
;; fast program: ((loop(loop((((loop((((y + y) + y) div (1 + loop(x + y, (x - (x div 2)) + x, 0))) + x, x, 1) + x) - x) + x) - x, 1, y) + x, x, 1) - x) - 1) + x
(set-logic UFNIA)
(define-fun divf ((a Int) (b Int)) Int (ite (< 0 b) (div a b) (div (- a) (- b))))
(declare-fun f5 (Int Int) Int)
(declare-fun g5 (Int Int) Int)
(declare-fun h5 (Int) Int)
(declare-fun u5 (Int Int) Int)
(declare-fun v5 (Int Int) Int)
(declare-fun f4 (Int Int) Int)
(declare-fun g4 (Int) Int)
(declare-fun h4 (Int) Int)
(declare-fun u4 (Int Int) Int)
(declare-fun v4 (Int) Int)
(declare-fun f3 (Int) Int)
(declare-fun g3 () Int)
(declare-fun h3 (Int) Int)
(declare-fun u3 (Int Int) Int)
(declare-fun v3 (Int) Int)
(declare-fun f2 (Int) Int)
(declare-fun g2 () Int)
(declare-fun h2 (Int Int) Int)
(declare-fun u2 (Int Int) Int)
(declare-fun v2 (Int Int) Int)
(declare-fun f1 (Int Int) Int)
(declare-fun g1 (Int Int) Int)
(declare-fun h1 (Int) Int)
(declare-fun u1 (Int Int) Int)
(declare-fun v1 (Int Int) Int)
(declare-fun f0 (Int Int) Int)
(declare-fun g0 (Int) Int)
(declare-fun h0 (Int) Int)
(declare-fun u0 (Int Int) Int)
(declare-fun v0 (Int) Int)
(declare-fun small (Int) Int)
(declare-fun f9 (Int Int) Int)
(declare-fun g9 (Int) Int)
(declare-fun h9 () Int)
(declare-fun u9 (Int Int) Int)
(declare-fun v9 (Int) Int)
(declare-fun f8 (Int Int) Int)
(declare-fun g8 (Int) Int)
(declare-fun h8 () Int)
(declare-fun u8 (Int Int) Int)
(declare-fun v8 (Int) Int)
(declare-fun f7 (Int) Int)
(declare-fun g7 () Int)
(declare-fun h7 (Int Int) Int)
(declare-fun u7 (Int Int) Int)
(declare-fun v7 (Int Int) Int)
(declare-fun f6 (Int Int) Int)
(declare-fun g6 (Int) Int)
(declare-fun h6 () Int)
(declare-fun u6 (Int Int) Int)
(declare-fun v6 (Int) Int)
(declare-fun fast (Int) Int)
(assert (forall ((x Int) (y Int)) (= (f5 x y) y)))
(assert (forall ((x Int) (y Int)) (= (g5 x y) (- x y))))
(assert (forall ((x Int)) (= (h5 x) x)))
(assert (forall ((x Int) (y Int)) (= (u5 x y) (ite (<= x 0) y (f5 (u5 (- x 1) y) x)))))
(assert (forall ((x Int) (y Int)) (= (v5 x y) (u5 (g5 x y) (h5 x)))))
(assert (forall ((x Int) (y Int)) (= (f4 x y) (v5 x y))))
(assert (forall ((x Int)) (= (g4 x) x)))
(assert (forall ((x Int)) (= (h4 x) (+ 1 x))))
(assert (forall ((x Int) (y Int)) (= (u4 x y) (ite (<= x 0) y (f4 (u4 (- x 1) y) x)))))
(assert (forall ((x Int)) (= (v4 x) (u4 (g4 x) (h4 x)))))
(assert (forall ((x Int)) (= (f3 x) (ite (<= (- (v4 x) 1) 0) 1 0))))
(assert (= g3 1))
(assert (forall ((x Int)) (= (h3 x) (+ (+ x x) x))))
(assert (forall ((x Int) (y Int)) (= (u3 x y) (ite (<= x 0) y (f3 (u3 (- x 1) y))))))
(assert (forall ((x Int)) (= (v3 x) (u3 g3 (h3 x)))))
(assert (forall ((x Int)) (= (f2 x) (v3 x))))
(assert (= g2 1))
(assert (forall ((x Int) (y Int)) (= (h2 x y) y)))
(assert (forall ((x Int) (y Int)) (= (u2 x y) (ite (<= x 0) y (f2 (u2 (- x 1) y))))))
(assert (forall ((x Int) (y Int)) (= (v2 x y) (u2 g2 (h2 x y)))))
(assert (forall ((x Int) (y Int)) (= (f1 x y) (+ (v2 x y) x))))
(assert (forall ((x Int) (y Int)) (= (g1 x y) (- y 1))))
(assert (forall ((x Int)) (= (h1 x) x)))
(assert (forall ((x Int) (y Int)) (= (u1 x y) (ite (<= x 0) y (f1 (u1 (- x 1) y) x)))))
(assert (forall ((x Int) (y Int)) (= (v1 x y) (u1 (g1 x y) (h1 x)))))
(assert (forall ((x Int) (y Int)) (= (f0 x y) (v1 x y))))
(assert (forall ((x Int)) (= (g0 x) x)))
(assert (forall ((x Int)) (= (h0 x) x)))
(assert (forall ((x Int) (y Int)) (= (u0 x y) (ite (<= x 0) y (f0 (u0 (- x 1) y) x)))))
(assert (forall ((x Int)) (= (v0 x) (u0 (g0 x) (h0 x)))))
(assert (forall ((x Int)) (= (small x) (v0 x))))
(assert (forall ((x Int) (y Int)) (= (f9 x y) (+ x y))))
(assert (forall ((x Int)) (= (g9 x) (+ (- x (divf x 2)) x))))
(assert (= h9 0))
(assert (forall ((x Int) (y Int)) (= (u9 x y) (ite (<= x 0) y (f9 (u9 (- x 1) y) x)))))
(assert (forall ((x Int)) (= (v9 x) (u9 (g9 x) h9))))
(assert (forall ((x Int) (y Int)) (= (f8 x y) (+ (divf (+ (+ y y) y) (+ 1 (v9 x))) x))))
(assert (forall ((x Int)) (= (g8 x) x)))
(assert (= h8 1))
(assert (forall ((x Int) (y Int)) (= (u8 x y) (ite (<= x 0) y (f8 (u8 (- x 1) y) x)))))
(assert (forall ((x Int)) (= (v8 x) (u8 (g8 x) h8))))
(assert (forall ((x Int)) (= (f7 x) (- (+ (- (+ (v8 x) x) x) x) x))))
(assert (= g7 1))
(assert (forall ((x Int) (y Int)) (= (h7 x y) y)))
(assert (forall ((x Int) (y Int)) (= (u7 x y) (ite (<= x 0) y (f7 (u7 (- x 1) y))))))
(assert (forall ((x Int) (y Int)) (= (v7 x y) (u7 g7 (h7 x y)))))
(assert (forall ((x Int) (y Int)) (= (f6 x y) (+ (v7 x y) x))))
(assert (forall ((x Int)) (= (g6 x) x)))
(assert (= h6 1))
(assert (forall ((x Int) (y Int)) (= (u6 x y) (ite (<= x 0) y (f6 (u6 (- x 1) y) x)))))
(assert (forall ((x Int)) (= (v6 x) (u6 (g6 x) h6))))
(assert (forall ((x Int)) (= (fast x) (+ (- (- (v6 x) x) 1) x))))
(assert (exists ((c Int)) (and (>= c 0) (not (= (small c) (fast c))))))
(check-sat)
